Optimal - objective value 90.00000000
      0 X0                    90                       1
      1 X1                     0                       0
      2 X2                     3                       0
      3 X3                     1                       0
      4 X4                     0                       0
      5 X6                    10                       0
      6 X7                     6                       0
      7 X8                   750                       0
      8 X5                    13                       0
